0
23
0
0
0
0
19
19
34
12
0
12
17
11
7
0
0
8
0
0
0
38
0
0
0
0
16
13
0
0
0
46
10
12
0
35
0
6
7
23
0
0
16
0
13
21
0
0
12
7
0
36
23
0
0
0
0
27
36
0
9
19
0
13
16
9
8
0
0
16
9
0
0
0
18
17
18
10
14
11
0
0
16
0
0
0
11
0
29
19
19
16
7
0
0
11
6
26
0
0
